%%%mzn-stat: initTime=0.048289538
%%%mzn-stat: objective=182
%%%mzn-stat: nodes=198131
%%%mzn-stat: restarts=241
%%%mzn-stat: peakDepth=538
%%%mzn-stat: solveTime=41.443871187
%%%mzn-stat: variables=1074
%%%mzn-stat: propagators=5737
%%%mzn-stat: failures=125182
%%%mzn-stat: propagations=60558620
%%%mzn-stat: nogoods=125182
%%%mzn-stat: AverageConflictSize=10.381492546851783
%%%mzn-stat: NumUnitNogoodsLearned=163
%%%mzn-stat: AverageLearnedNogoodLength=24.00097458101005
%%%mzn-stat: AverageBacktrackAmount=0
%%%mzn-stat: AverageLbd=10.821380070617181
%%%mzn-stat-end
maxleg = 182;
succ = array1d(1..100,[77, 87, 40, 85, 37, 67, 49, 99, 61, 36, 74, 27, 54, 94, 65, 51, 75, 80, 78, 43, 93, 52, 63, 53, 20, 88, 83, 91, 9, 70, 97, 3, 92, 10, 19, 42, 39, 95, 81, 45, 58, 48, 69, 33, 17, 57, 30, 7, 98, 15, 14, 6, 76, 18, 66, 2, 86, 100, 35, 24, 44, 64, 47, 90, 13, 29, 89, 8, 79, 21, 41, 34, 1, 62, 4, 5, 23, 32, 22, 25, 82, 71, 84, 72, 11, 50, 12, 46, 96, 28, 16, 26, 59, 60, 31, 38, 68, 73, 56, 55]);
% time elapsed: 44.86 s
----------
==========
% time elapsed: 430.38 s
%%%mzn-stat: initTime=0.048289538
%%%mzn-stat: objective=182
%%%mzn-stat: nodes=1461584
%%%mzn-stat: restarts=2488
%%%mzn-stat: peakDepth=538
%%%mzn-stat: solveTime=426.971430919
%%%mzn-stat: variables=1074
%%%mzn-stat: propagators=5737
%%%mzn-stat: failures=988009
%%%mzn-stat: propagations=433138004
%%%mzn-stat: nogoods=988009
%%%mzn-stat: AverageConflictSize=14.46943398288882
%%%mzn-stat: NumUnitNogoodsLearned=164
%%%mzn-stat: AverageLearnedNogoodLength=30.48695609048096
%%%mzn-stat: AverageBacktrackAmount=0
%%%mzn-stat: AverageLbd=10.371967259407556
%%%mzn-stat-end
